33 35 36 34 37 62 65 61 66 53 27 26 55 30 54 11 56 32 43 45 44 47 48 46 42 41 40 50 51 52 49 39 176 146 147 148 144 145 178 185 182 181 180 179 183 186 184 191 192 193 195 194 190 189 188 196 197 198 199 187 100